Route #1: 26 17 12
Route #2: 40 32
Route #3: 44 3 51 6
Route #4: 2 30 48
Route #5: 47 36 21
Route #6: 28 22 33
Route #7: 1 43 42 41 23
Route #8: 16 49 24 18
Route #9: 50 25 9
Route #10: 39 31 10
Route #11: 38 11
Route #12: 14 53 7
Route #13: 35 8 19 54 13
Route #14: 15 20 37 5
Route #15: 29 45 27 52
Route #16: 46 34
Route #17: 4
Cost 982